RT is False
Default write of storage_offers_DA.csv just to have a file (but constraint should be inactive)
Reading model...
...model read.
creating competitive generators file...
...competitive generators recorded.
Loading data...
.. day-ahead data with real-time VRE data read.
Compiling instance...
...instance created.
Creating Offer Mitigation (model will solve as dispatch if TRUE)...
NOTE: storage offers will not be mitigated
...storage offer mitigation file created
Converting model to MPEC...
...converted
NOTE: initial MIP solve with only storage competitive to get feasible solution
Solving...

Welcome to IBM(R) ILOG(R) CPLEX(R) Interactive Optimizer 12.9.0.0
  with Simplex, Mixed Integer & Barrier Optimizers
5725-A06 5725-A29 5724-Y48 5724-Y49 5724-Y54 5724-Y55 5655-Y21
Copyright IBM Corp. 1988, 2019.  All Rights Reserved.

Type 'help' for a list of available commands.
Type 'help' followed by a command name for more
information on commands.

CPLEX> Logfile 'cplex.log' closed.
Logfile 'C:\Users\llavin\Desktop\test826\logs\tmp5pv7y0ug.cplex.log' open.
CPLEX> New value for parallel optimization mode: -1
CPLEX> New value for mixed integer optimality gap tolerance: 0.01
CPLEX> New value for integrality tolerance: 1e-09
CPLEX> New value for feasibility tolerance: 1e-05
CPLEX> New value for deterministic time limit in ticks: 75000
CPLEX> Problem 'C:\Users\llavin\Desktop\test826\logs\tmpc5a3sx2u.pyomo.lp' read.
Read time = 0.23 sec. (14.73 ticks)
CPLEX> Problem name         : C:\Users\llavin\Desktop\test826\logs\tmpc5a3sx2u.pyomo.lp
Objective sense      : Maximize
Variables            :   53805  [Nneg: 1,  Box: 22000,  Free: 4464,
                                 Binary: 27340]
Objective nonzeros   :    9029
Linear constraints   :  123205  [Less: 41346,  Greater: 59096,  Equal: 22763]
  Nonzeros           :  291753
  RHS nonzeros       :   67491

Variables            : Min LB: -5000.000        Max UB: 1000000.       
Objective nonzeros   : Min   : 0.1750000        Max   : 2500.000       
Linear constraints   :
  Nonzeros           : Min   : 0.1750000        Max   : 1000000.       
  RHS nonzeros       : Min   : 0.1750000        Max   : 1000000.       
CPLEX> CPXPARAM_Parallel                                -1
CPXPARAM_Simplex_Tolerances_Feasibility          1.0000000000000001e-05
CPXPARAM_DetTimeLimit                            75000
CPXPARAM_MIP_Tolerances_MIPGap                   0.01
CPXPARAM_MIP_Tolerances_Integrality              1.0000000000000001e-09
Tried aggregator 3 times.
MIP Presolve eliminated 88728 rows and 19052 columns.
MIP Presolve added 3372 rows and 0 columns.
MIP Presolve modified 24860 coefficients.
Aggregator did 12966 substitutions.
Reduced MIP has 24883 rows, 21231 columns, and 70960 nonzeros.
Reduced MIP has 8390 binaries, 0 generals, 0 SOSs, and 0 indicators.
Presolve time = 0.28 sec. (172.32 ticks)
Probing fixed 391 vars, tightened 2829 bounds.
Probing time = 1.23 sec. (888.87 ticks)
Tried aggregator 2 times.
MIP Presolve eliminated 881 rows and 786 columns.
MIP Presolve modified 2213 coefficients.
Aggregator did 43 substitutions.
Reduced MIP has 23959 rows, 20402 columns, and 68263 nonzeros.
Reduced MIP has 7999 binaries, 0 generals, 0 SOSs, and 0 indicators.
Presolve time = 0.11 sec. (69.20 ticks)
Probing time = 0.05 sec. (15.97 ticks)
Clique table members: 6416.
MIP emphasis: balance optimality and feasibility.
MIP search method: dynamic search.
Parallel mode: opportunistic, using up to 32 threads.
Root relaxation solution time = 0.56 sec. (724.12 ticks)

        Nodes                                         Cuts/
   Node  Left     Objective  IInf  Best Integer    Best Bound    ItCnt     Gap

      0     0      -23.4052   218                    -23.4052     6849         
      0     0      -23.4052     4                     Cuts: 8     6853         
      0     0      -23.4052     2                   Covers: 1     6855         
      0     0      -23.4052     1                   Covers: 1     6856         
      0    28    infeasible                           Cuts: 3     7680         
Elapsed time = 5.97 sec. (3719.41 ticks, tree = 0.03 MB, solutions = 0)
    412    86    -2343.1348    20                    -85.0443    10817         
    789   376    -2703.4162    20                    -85.0443    30492         
   1179   589    -5323.6667    34                    -85.0443    54785         
   1629   666      -87.5824     3                    -85.0443    66775         
   2171   834   -15986.8243    16                    -85.0443    75144         
   2827  1244     -341.4486     3                    -85.0443    95454         
   3513  1407    infeasible                          -85.0443    99687         
   4196  2255     -105.8990     4                    -85.4933   128462         
   4796  2179     -166.1782     3                    -86.6478   126390         
   7180  3025    -1672.3388     5                    -86.6905   174264         
Elapsed time = 21.53 sec. (6824.32 ticks, tree = 54.88 MB, solutions = 0)
*  8156  4022      integral     0    -1175.6092      -86.8403   210186   92.61%
   8545  3672    infeasible          -1175.6092      -86.8403   211279   92.61%
   8546  2524    infeasible          -1175.6092      -87.1396   257837   92.59%
   9666    58     -260.8872     5    -1175.6092      -87.4629   258668   92.56%
  12180   731     -906.3720     5    -1175.6092      -87.7381   268964   92.54%
  15827  2158    infeasible          -1175.6092      -87.7381   292461   92.54%
  19935  2554     -414.9673     5    -1175.6092     -116.0912   300134   90.13%
  23726  5086     -968.0442     7    -1175.6092     -146.8864   368997   87.51%
  27852  6665     -359.6231     8    -1175.6092     -186.3000   432995   84.15%
  32122  6318     -450.2455     7    -1175.6092     -228.2383   417332   80.59%
Elapsed time = 71.64 sec. (19026.66 ticks, tree = 41.21 MB, solutions = 1)
  36564  7621    -1105.5785    16    -1175.6092     -260.8872   523148   77.81%
  40086  7348     -479.8334     9    -1175.6092     -305.4067   559963   74.02%
  43517  6859     -544.6994     6    -1175.6092     -335.4297   631379   71.47%
  47065  6987    -1049.8763    12    -1175.6092     -359.6231   613980   69.41%
  51075  5349     -733.8630     9    -1175.6092     -414.9673   742364   64.70%
  55176  3369        cutoff          -1175.6092     -447.4004   840202   61.94%
  58716  4621     -544.6994     5    -1175.6092     -450.2455   781134   61.70%
  60676  2248     -625.7432     7    -1175.6092     -450.2455   882254   61.70%
  61202  3100        cutoff          -1175.6092     -450.2455   850328   61.70%
  61488  1737    infeasible          -1175.6092     -526.9211   904026   55.18%
Elapsed time = 105.14 sec. (30565.70 ticks, tree = 13.36 MB, solutions = 1)
  63672   448        cutoff          -1175.6092     -526.9211   920214   55.18%

GUB cover cuts applied:  1
Cover cuts applied:  20
Implied bound cuts applied:  19
Flow cuts applied:  17
Mixed integer rounding cuts applied:  9
Gomory fractional cuts applied:  4

Root node processing (before b&c):
  Real time             =    4.81 sec. (3706.72 ticks)
Parallel b&c, 32 threads:
  Real time             =  106.11 sec. (28652.14 ticks)
  Sync time (average)   =    3.08 sec.
  Wait time (average)   =    0.22 sec.
                          ------------
Total (root+branch&cut) =  110.92 sec. (32358.86 ticks)

Solution pool: 1 solution saved.

MIP - Integer optimal solution:  Objective = -1.1756092432e+03
Solution time =  110.95 sec.  Iterations = 957445  Nodes = 66897
Deterministic time = 32359.02 ticks  (291.64 ticks/sec)

CPLEX> Incumbent solution written to file 'C:\Users\llavin\Desktop\test826\logs\tmpqnne_owp.cplex.sol'.
CPLEX> NOTE: no warmstart specified for MIP iteration, default behavior is true
NOTE: resolving with all competitive generators using storage-only solution to warmstart
Solving...

Welcome to IBM(R) ILOG(R) CPLEX(R) Interactive Optimizer 12.9.0.0
  with Simplex, Mixed Integer & Barrier Optimizers
5725-A06 5725-A29 5724-Y48 5724-Y49 5724-Y54 5724-Y55 5655-Y21
Copyright IBM Corp. 1988, 2019.  All Rights Reserved.

Type 'help' for a list of available commands.
Type 'help' followed by a command name for more
information on commands.

CPLEX> Logfile 'cplex.log' closed.
Logfile 'C:\Users\llavin\Desktop\test826\logs\tmpcla90jek.cplex.log' open.
CPLEX> New value for parallel optimization mode: -1
CPLEX> New value for mixed integer optimality gap tolerance: 0.01
CPLEX> New value for integrality tolerance: 1e-09
CPLEX> New value for feasibility tolerance: 1e-05
CPLEX> New value for deterministic time limit in ticks: 75000
CPLEX> Problem 'C:\Users\llavin\Desktop\test826\logs\tmpia7yyp3e.pyomo.lp' read.
Read time = 0.26 sec. (14.75 ticks)
CPLEX> MIP start file 'C:\Users\llavin\Desktop\test826\logs\tmp4hbc697d.cplex.mst' read.
CPLEX> Problem name         : C:\Users\llavin\Desktop\test826\logs\tmpia7yyp3e.pyomo.lp
Objective sense      : Maximize
Variables            :   54525  [Nneg: 1,  Box: 22720,  Free: 4464,
                                 Binary: 27340]
Objective nonzeros   :    9749
Linear constraints   :  123205  [Less: 41346,  Greater: 59096,  Equal: 22763]
  Nonzeros           :  291753
  RHS nonzeros       :   67491

Variables            : Min LB: -5000.000        Max UB: 1000000.       
Objective nonzeros   : Min   : 0.1750000        Max   : 2500.000       
Linear constraints   :
  Nonzeros           : Min   : 0.1750000        Max   : 1000000.       
  RHS nonzeros       : Min   : 0.1750000        Max   : 1000000.       
CPLEX> CPXPARAM_Parallel                                -1
CPXPARAM_Simplex_Tolerances_Feasibility          1.0000000000000001e-05
CPXPARAM_DetTimeLimit                            75000
CPXPARAM_MIP_Tolerances_MIPGap                   0.01
CPXPARAM_MIP_Tolerances_Integrality              1.0000000000000001e-09
Warning:  No solution found from 1 MIP starts.
Retaining values of one MIP start for possible repair.
Tried aggregator 3 times.
MIP Presolve eliminated 88728 rows and 19772 columns.
MIP Presolve added 3372 rows and 0 columns.
MIP Presolve modified 24860 coefficients.
Aggregator did 12966 substitutions.
Reduced MIP has 24883 rows, 21231 columns, and 70960 nonzeros.
Reduced MIP has 8390 binaries, 0 generals, 0 SOSs, and 0 indicators.
Presolve time = 0.30 sec. (172.67 ticks)
Probing fixed 391 vars, tightened 2829 bounds.
Probing time = 1.20 sec. (888.87 ticks)
Tried aggregator 2 times.
MIP Presolve eliminated 881 rows and 786 columns.
MIP Presolve modified 2213 coefficients.
Aggregator did 43 substitutions.
Reduced MIP has 23959 rows, 20402 columns, and 68263 nonzeros.
Reduced MIP has 7999 binaries, 0 generals, 0 SOSs, and 0 indicators.
Presolve time = 0.09 sec. (69.20 ticks)
Probing time = 0.03 sec. (15.97 ticks)
Clique table members: 6416.
MIP emphasis: balance optimality and feasibility.
MIP search method: dynamic search.
Parallel mode: opportunistic, using up to 32 threads.
Root relaxation solution time = 0.56 sec. (724.12 ticks)

        Nodes                                         Cuts/
   Node  Left     Objective  IInf  Best Integer    Best Bound    ItCnt     Gap

      0     0      -23.4052   218                    -23.4052     6849         
      0     0      -23.4052     4                     Cuts: 8     6853         
      0     0      -23.4052     2                   Covers: 1     6855         
      0     0      -23.4052     1                   Covers: 1     6856         
Repair heuristic found nothing.
      0    10    infeasible                       Impl Bds: 2     6987         
Elapsed time = 6.23 sec. (3780.41 ticks, tree = 0.02 MB, solutions = 0)
    339    51   -66361.9853    44                    -85.0443     8376         
    749   287    -2857.5738    22                    -85.0443    21267         
   1123   569    -4984.3718    19                    -85.0443    38061         
   1624   753     -142.9367     3                    -85.0443    63230         
   2186   910      -98.7839     3                    -85.0443    75915         
   2861  1072     -229.7930     7                    -85.0443    82113         
   3673  1343     -614.2158     6                    -85.0443    91362         
   4464  1958    -2224.3850     5                    -85.0443   109251         
   5077  2340    infeasible                          -85.0443   116792         
   7875  3633    -2165.2629     5                    -99.4297   170479         
Elapsed time = 22.20 sec. (6885.51 ticks, tree = 62.77 MB, solutions = 0)
   8688  4450    infeasible                          -99.4297   203062         
   9754   527     -265.9352    13                    -99.4297   211080         
  11435   759     -142.8163    14                    -99.4297   212959         
  12612  1827     -147.6909    11                    -99.4297   221521         
  15344  2251     -332.5165    14                    -99.4297   224688         
  18614  4791     -354.6942    11                   -129.1503   244130         
  21516  7042     -204.8905    13                   -133.2482   263649         
  24160  7920   -67559.1191    51                   -133.2482   272409         
  26779  9343    infeasible                         -133.2482   289338         
  29483 11798    infeasible                         -133.2482   320553         
Elapsed time = 80.67 sec. (21117.95 ticks, tree = 88.95 MB, solutions = 0)
  32344 13401     -280.6427    18                   -133.2482   340851         
  35936 18275     -432.0808    17                   -133.2482   400278         
  39994 20686     -256.0468    16                   -133.2482   427212         
  43395 20787     -382.0366    14                   -133.2482   427838         
  46524 21711     -207.6675    24                   -133.2482   437354         
  49537 28821     -321.7128    12                   -133.2482   513569         
  53001 29432    -4033.0170    27                   -133.2482   521946         
  56842 30900     -532.4317    15                   -133.2482   538950         
  60072 32970     -306.2563    18                   -133.2482   559032         
  62147 33521     -236.2166    20                   -133.2482   565751         
Elapsed time = 128.86 sec. (30657.08 ticks, tree = 253.43 MB, solutions = 0)
  63108 39109    -5193.5583    21                   -133.2482   634993         
  63940 39436     -382.0366    14                   -133.2482   640914         
  65633 39932     -447.9505    19                   -133.2482   648955         
  68481 39672     -298.9648    17                   -133.2482   643772         
  71829 40301     -552.9986    13                   -133.2482   655071         
  75424 41143    -2062.7512    20                   -133.2482   665671         
  79104 42925     -881.7954    19                   -133.2482   688295         
  82954 43495    -1506.2430    18                   -133.2482   696822         
  87020 49427    -1199.6423    13                   -133.2482   769928         
  90943 50565     -527.0542    13                   -133.2482   781589         
Elapsed time = 189.16 sec. (40197.65 ticks, tree = 383.66 MB, solutions = 0)
  94703 52612    -1653.3952    15                   -133.2482   810853         
  98036 59308     -891.3385    17                   -133.2482   898305         
 101270 59353   -78567.5569    59                   -133.2482   899768         
 104366 59611     -463.3222    13                   -133.2482   903959         
 106936 62073    -2317.3168    13                   -133.2482   935753         
 108907 64757     -390.4159    12                   -133.2482   982710         
 110169 66447     -916.8481    11                   -133.2482  1012092         
 110315 72158    infeasible                         -134.0357  1116631         
 110900   303     -163.1139    11                   -134.0357  1123043         
 111673   420     -133.0469    11                   -134.0357  1125528         
Elapsed time = 216.38 sec. (52067.84 ticks, tree = 10.62 MB, solutions = 0)
 112615  1442     -954.7572    11                   -134.0357  1138503         
 113841  2047     -341.1171    15                   -134.0357  1147347         
 115229  2724     -924.0974    14                   -134.0357  1156947         
 116703  3477     -451.1534    10                   -134.0357  1168344         
 118258  4926     -557.5208    12                   -134.0357  1188680         
 119849  5598     -163.1139    11                   -134.0357  1200908         
 121367  7944     -451.1534    10                   -134.0357  1230188         
 122993  8916     -531.2038     9                   -134.0357  1239687         
 124654  9772     -531.2038     9                   -134.0357  1246232         
 126370 10197     -133.0469    12                   -134.0357  1249531         
Elapsed time = 254.56 sec. (61609.75 ticks, tree = 78.98 MB, solutions = 0)
 128089 12740     -532.4180    11                   -134.0357  1269423         
 129821 12253    infeasible                         -134.0357  1265735         
 131536 15043     -531.2038     8                   -134.0357  1286775         
 133224 15939     -472.1087    10                   -134.0357  1293673         
 134911 17582     -163.1137    12                   -134.0357  1305695         
 136687 18476     -133.0469    10                   -134.0357  1312243         
 138440 19713     -163.1137     9                   -134.0357  1321212         
 140160 21058     -451.1534    10                   -134.0357  1330932         
 141889 21991     -477.1978    11                   -134.0357  1337632         
 143590 24988     -477.1978    11                   -134.0357  1359117         
Elapsed time = 291.98 sec. (71149.78 ticks, tree = 193.33 MB, solutions = 0)
 145221 24056     -195.1346    10                   -134.0357  1352490         
 146814 26334     -531.6465    13                   -134.0357  1369004         
 148088 26372     -531.2038    11                   -134.0357  1369317         
 148789 27166     -451.1534    12                   -134.0357  1375352         

Cover cuts applied:  15
Implied bound cuts applied:  8
Flow cuts applied:  6
Mixed integer rounding cuts applied:  3
Gomory fractional cuts applied:  2

Root node processing (before b&c):
  Real time             =    5.08 sec. (3772.04 ticks)
Parallel b&c, 32 threads:
  Real time             =  295.36 sec. (71246.84 ticks)
  Sync time (average)   =    2.40 sec.
  Wait time (average)   =    0.42 sec.
                          ------------
Total (root+branch&cut) =  300.44 sec. (75018.87 ticks)


MIP - Deterministic time limit exceeded, no integer solution.
Current MIP best bound = -1.3403565304e+02 (gap is infinite)
Solution time =  300.45 sec.  Iterations = 1397150  Nodes = 148806 (30081)
Deterministic time = 75019.03 ticks  (249.69 ticks/sec)

CPLEX> CPLEX Error  1217: No solution exists.
No file written.
CPLEX> gap is infinite, so writing 0
Exporting results... 
